21
18
18
0
26
0
12
27
0
33
30
92
0
36
22
17
0
30
16
0
0
60
24
28
23
16
0
12
11
19
29
26
24
376
27
59
43
13
42
81
19
23
54
29
52
36
15
42
0
117
0
41
35
0
0
0
21
15
26
0
27
35
24
42
0
23
13
29
46
0
39
0
27
38
0
33
21
23
30
29
0
70
13
43
0
0
19
32
17
0
20
13
88
0
0
31
21
12
13
0
